c *********************************
c * Circuit generated by BenCGen
c *
c * CarryLookahead_9_9_9_InOutT
c *
c * Ports with 1 gate(s): 2
c * Ports with 2 gate(s): 38
c * Ports with 3 gate(s): 9
c * Ports with 4 gate(s): 8
c * Ports with 5 gate(s): 7
c * Ports with 6 gate(s): 6
c * Ports with 7 gate(s): 5
c * Ports with 8 gate(s): 4
c * Ports with 9 gate(s): 3
c * Ports with 10 gate(s): 2
c * Total gates: 84
c *********************************
p cnf 102 424
1 30 0
-1 -30 0
1 -29 0
30 -29 0
-1 -30 29 0
1 10 -31 0
-1 10 31 0
1 -10 31 0
-1 -10 -31 0
1 -40 0
10 -40 0
-1 -10 40 0
2 11 -32 0
-2 11 32 0
2 -11 32 0
-2 -11 -32 0
2 -41 0
11 -41 0
-2 -11 41 0
3 12 -33 0
-3 12 33 0
3 -12 33 0
-3 -12 -33 0
3 -42 0
12 -42 0
-3 -12 42 0
4 13 -34 0
-4 13 34 0
4 -13 34 0
-4 -13 -34 0
4 -43 0
13 -43 0
-4 -13 43 0
5 14 -35 0
-5 14 35 0
5 -14 35 0
-5 -14 -35 0
5 -44 0
14 -44 0
-5 -14 44 0
6 15 -36 0
-6 15 36 0
6 -15 36 0
-6 -15 -36 0
6 -45 0
15 -45 0
-6 -15 45 0
7 16 -37 0
-7 16 37 0
7 -16 37 0
-7 -16 -37 0
7 -46 0
16 -46 0
-7 -16 46 0
8 17 -38 0
-8 17 38 0
8 -17 38 0
-8 -17 -38 0
8 -47 0
17 -47 0
-8 -17 47 0
9 18 -39 0
-9 18 39 0
9 -18 39 0
-9 -18 -39 0
9 -48 0
18 -48 0
-9 -18 48 0
29 -58 0
31 -58 0
-29 -31 58 0
29 -59 0
31 -59 0
32 -59 0
-29 -31 -32 59 0
40 -60 0
32 -60 0
-40 -32 60 0
29 -61 0
31 -61 0
32 -61 0
33 -61 0
-29 -31 -32 -33 61 0
40 -62 0
32 -62 0
33 -62 0
-40 -32 -33 62 0
41 -63 0
33 -63 0
-41 -33 63 0
29 -64 0
31 -64 0
32 -64 0
33 -64 0
34 -64 0
-29 -31 -32 -33 -34 64 0
40 -65 0
32 -65 0
33 -65 0
34 -65 0
-40 -32 -33 -34 65 0
41 -66 0
33 -66 0
34 -66 0
-41 -33 -34 66 0
42 -67 0
34 -67 0
-42 -34 67 0
29 -68 0
31 -68 0
32 -68 0
33 -68 0
34 -68 0
35 -68 0
-29 -31 -32 -33 -34 -35 68 0
40 -69 0
32 -69 0
33 -69 0
34 -69 0
35 -69 0
-40 -32 -33 -34 -35 69 0
41 -70 0
33 -70 0
34 -70 0
35 -70 0
-41 -33 -34 -35 70 0
42 -71 0
34 -71 0
35 -71 0
-42 -34 -35 71 0
43 -72 0
35 -72 0
-43 -35 72 0
29 -73 0
31 -73 0
32 -73 0
33 -73 0
34 -73 0
35 -73 0
36 -73 0
-29 -31 -32 -33 -34 -35 -36 73 0
40 -74 0
32 -74 0
33 -74 0
34 -74 0
35 -74 0
36 -74 0
-40 -32 -33 -34 -35 -36 74 0
41 -75 0
33 -75 0
34 -75 0
35 -75 0
36 -75 0
-41 -33 -34 -35 -36 75 0
42 -76 0
34 -76 0
35 -76 0
36 -76 0
-42 -34 -35 -36 76 0
43 -77 0
35 -77 0
36 -77 0
-43 -35 -36 77 0
44 -78 0
36 -78 0
-44 -36 78 0
29 -79 0
31 -79 0
32 -79 0
33 -79 0
34 -79 0
35 -79 0
36 -79 0
37 -79 0
-29 -31 -32 -33 -34 -35 -36 -37 79 0
40 -80 0
32 -80 0
33 -80 0
34 -80 0
35 -80 0
36 -80 0
37 -80 0
-40 -32 -33 -34 -35 -36 -37 80 0
41 -81 0
33 -81 0
34 -81 0
35 -81 0
36 -81 0
37 -81 0
-41 -33 -34 -35 -36 -37 81 0
42 -82 0
34 -82 0
35 -82 0
36 -82 0
37 -82 0
-42 -34 -35 -36 -37 82 0
43 -83 0
35 -83 0
36 -83 0
37 -83 0
-43 -35 -36 -37 83 0
44 -84 0
36 -84 0
37 -84 0
-44 -36 -37 84 0
45 -85 0
37 -85 0
-45 -37 85 0
29 -86 0
31 -86 0
32 -86 0
33 -86 0
34 -86 0
35 -86 0
36 -86 0
37 -86 0
38 -86 0
-29 -31 -32 -33 -34 -35 -36 -37 -38 86 0
40 -87 0
32 -87 0
33 -87 0
34 -87 0
35 -87 0
36 -87 0
37 -87 0
38 -87 0
-40 -32 -33 -34 -35 -36 -37 -38 87 0
41 -88 0
33 -88 0
34 -88 0
35 -88 0
36 -88 0
37 -88 0
38 -88 0
-41 -33 -34 -35 -36 -37 -38 88 0
42 -89 0
34 -89 0
35 -89 0
36 -89 0
37 -89 0
38 -89 0
-42 -34 -35 -36 -37 -38 89 0
43 -90 0
35 -90 0
36 -90 0
37 -90 0
38 -90 0
-43 -35 -36 -37 -38 90 0
44 -91 0
36 -91 0
37 -91 0
38 -91 0
-44 -36 -37 -38 91 0
45 -92 0
37 -92 0
38 -92 0
-45 -37 -38 92 0
46 -93 0
38 -93 0
-46 -38 93 0
29 -94 0
31 -94 0
32 -94 0
33 -94 0
34 -94 0
35 -94 0
36 -94 0
37 -94 0
38 -94 0
39 -94 0
-29 -31 -32 -33 -34 -35 -36 -37 -38 -39 94 0
40 -95 0
32 -95 0
33 -95 0
34 -95 0
35 -95 0
36 -95 0
37 -95 0
38 -95 0
39 -95 0
-40 -32 -33 -34 -35 -36 -37 -38 -39 95 0
41 -96 0
33 -96 0
34 -96 0
35 -96 0
36 -96 0
37 -96 0
38 -96 0
39 -96 0
-41 -33 -34 -35 -36 -37 -38 -39 96 0
42 -97 0
34 -97 0
35 -97 0
36 -97 0
37 -97 0
38 -97 0
39 -97 0
-42 -34 -35 -36 -37 -38 -39 97 0
43 -98 0
35 -98 0
36 -98 0
37 -98 0
38 -98 0
39 -98 0
-43 -35 -36 -37 -38 -39 98 0
44 -99 0
36 -99 0
37 -99 0
38 -99 0
39 -99 0
-44 -36 -37 -38 -39 99 0
45 -100 0
37 -100 0
38 -100 0
39 -100 0
-45 -37 -38 -39 100 0
46 -101 0
38 -101 0
39 -101 0
-46 -38 -39 101 0
47 -102 0
39 -102 0
-47 -39 102 0
-40 49 0
-58 49 0
40 58 -49 0
-41 50 0
-59 50 0
-60 50 0
41 59 60 -50 0
-42 51 0
-61 51 0
-62 51 0
-63 51 0
42 61 62 63 -51 0
-43 52 0
-64 52 0
-65 52 0
-66 52 0
-67 52 0
43 64 65 66 67 -52 0
-44 53 0
-68 53 0
-69 53 0
-70 53 0
-71 53 0
-72 53 0
44 68 69 70 71 72 -53 0
-45 54 0
-73 54 0
-74 54 0
-75 54 0
-76 54 0
-77 54 0
-78 54 0
45 73 74 75 76 77 78 -54 0
-46 55 0
-79 55 0
-80 55 0
-81 55 0
-82 55 0
-83 55 0
-84 55 0
-85 55 0
46 79 80 81 82 83 84 85 -55 0
-47 56 0
-86 56 0
-87 56 0
-88 56 0
-89 56 0
-90 56 0
-91 56 0
-92 56 0
-93 56 0
47 86 87 88 89 90 91 92 93 -56 0
-48 57 0
-94 57 0
-95 57 0
-96 57 0
-97 57 0
-98 57 0
-99 57 0
-100 57 0
-101 57 0
-102 57 0
48 94 95 96 97 98 99 100 101 102 -57 0
31 29 -19 0
-31 29 19 0
31 -29 19 0
-31 -29 -19 0
32 49 -20 0
-32 49 20 0
32 -49 20 0
-32 -49 -20 0
33 50 -21 0
-33 50 21 0
33 -50 21 0
-33 -50 -21 0
34 51 -22 0
-34 51 22 0
34 -51 22 0
-34 -51 -22 0
35 52 -23 0
-35 52 23 0
35 -52 23 0
-35 -52 -23 0
36 53 -24 0
-36 53 24 0
36 -53 24 0
-36 -53 -24 0
37 54 -25 0
-37 54 25 0
37 -54 25 0
-37 -54 -25 0
38 55 -26 0
-38 55 26 0
38 -55 26 0
-38 -55 -26 0
39 56 -27 0
-39 56 27 0
39 -56 27 0
-39 -56 -27 0
57 -28 0
-57 28 0
